p cnf 205 510
c
c
c
p cnf 205 510
c
c
c
18 4 0
-18 -4 0
19 7 0
-19 -7 0
20 6 0
-20 -6 0
21 5 0
-21 -5 0
22 8 0
-22 -8 0
23 17 0
-23 -17 0
24 5 0
-24 -5 0
25 7 0
-25 -7 0
26 6 0
-26 -6 0
27 16 0
-27 -16 0
28 9 0
-28 -9 0
29 10 0
-29 -10 0
30 29 0
-30 -29 0
31 11 0
-31 -11 0
32 31 0
-32 -31 0
33 4 0
-33 -4 0
34 5 0
-34 -5 0
35 10 0
-35 -10 0
36 6 0
-36 -6 0
37 11 0
-37 -11 0
38 8 0
-38 -8 0
39 12 0
-39 -12 0
40 7 0
-40 -7 0
41 15 0
-41 -15 0
42 12 0
-42 -12 0
43 42 0
-43 -42 0
44 13 0
-44 -13 0
45 44 0
-45 -44 0
46 16 0
-46 -16 0
47 3 0
-47 -3 0
48 47 0
-48 -47 0
49 17 0
-49 -17 0
50 1 0
-50 -1 0
51 50 0
-51 -50 0
52 2 0
-52 -2 0
53 52 0
-53 -52 0
54 14 0
-54 -14 0
55 54 0
-55 -54 0
56 15 0
-56 -15 0
57 56 0
-57 -56 0
-137 7 0
-137 20 0
137 -7 -20 0
-58 137 0
-58 4 0
58 -137 -4 0
-59 5 0
-59 4 0
59 -5 -4 0
-60 21 0
-60 18 0
60 -21 -18 0
-138 6 0
-138 5 0
138 -6 -5 0
-61 138 0
-61 4 0
61 -138 -4 0
-62 20 0
-62 18 0
62 -20 -18 0
-63 20 0
-63 21 0
63 -20 -21 0
-139 13 0
-139 8 0
139 -13 -8 0
-64 139 0
-64 6 0
64 -139 -6 0
-140 8 0
-140 36 0
140 -8 -36 0
-65 140 0
-65 34 0
65 -140 -34 0
-66 35 0
-66 8 0
66 -35 -8 0
-67 38 0
-67 40 0
67 -38 -40 0
-68 40 0
-68 36 0
68 -40 -36 0
-69 7 0
-69 37 0
69 -7 -37 0
-70 7 0
-70 38 0
70 -7 -38 0
-141 6 0
-141 8 0
141 -6 -8 0
-71 141 0
-71 39 0
71 -141 -39 0
-72 8 0
-72 41 0
72 -8 -41 0
-73 16 0
-73 48 0
73 -16 -48 0
-74 17 0
-74 53 0
74 -17 -53 0
142 -19 0
142 -20 0
-142 19 20 0
143 -142 0
143 -21 0
-143 142 21 0
75 -143 0
75 -18 0
-75 143 18 0
144 -6 0
144 -5 0
-144 6 5 0
76 -144 0
76 -18 0
-76 144 18 0
145 -38 0
145 -7 0
-145 38 7 0
146 -145 0
146 -6 0
-146 145 6 0
77 -146 0
77 -5 0
-77 146 5 0
78 -12 0
78 -40 0
-78 12 40 0
79 -8 0
79 -40 0
-79 8 40 0
147 -7 0
147 -6 0
-147 7 6 0
80 -147 0
80 -34 0
-80 147 34 0
81 -14 0
81 -36 0
-81 14 36 0
82 -14 0
82 -40 0
-82 14 40 0
83 -8 0
83 -40 0
-83 8 40 0
84 -8 0
84 -5 0
-84 8 5 0
85 -7 0
85 -6 0
-85 7 6 0
148 -38 0
148 -7 0
-148 38 7 0
149 -148 0
149 -6 0
-149 148 6 0
86 -149 0
86 -5 0
-86 149 5 0
150 -8 0
150 -36 0
-150 8 36 0
87 -150 0
87 -34 0
-87 150 34 0
151 -11 0
151 -38 0
-151 11 38 0
88 -151 0
88 -36 0
-88 151 36 0
-153 4 0
-153 5 0
153 -4 -5 0
-152 153 0
-152 6 0
152 -153 -6 0
89 152 0
-89 -152 0
-155 4 0
-155 21 0
155 -4 -21 0
-156 155 0
-156 20 0
156 -155 -20 0
-154 156 0
-154 7 0
154 -156 -7 0
90 154 0
-90 -154 0
-158 8 0
-158 82 0
158 -8 -82 0
-159 158 0
-159 81 0
159 -158 -81 0
-157 159 0
-157 80 0
157 -159 -80 0
91 157 0
-91 -157 0
-92 -51 0
-92 -4 0
92 51 4 0
161 -51 0
161 -60 0
-161 51 60 0
162 -161 0
162 -59 0
-162 161 59 0
160 -162 0
160 -58 0
-160 162 58 0
93 160 0
-93 -160 0
164 -51 0
164 -63 0
-164 51 63 0
165 -164 0
165 -62 0
-165 164 62 0
163 -165 0
163 -61 0
-163 165 61 0
94 163 0
-94 -163 0
-95 -19 0
-95 -22 0
95 19 22 0
-96 -25 0
-96 -8 0
96 25 8 0
-97 -65 0
-97 -64 0
97 65 64 0
-98 89 0
-98 19 0
98 -89 -19 0
-166 95 0
-166 4 0
166 -95 -4 0
-167 166 0
-167 21 0
167 -166 -21 0
-99 167 0
-99 20 0
99 -167 -20 0
-168 90 0
-168 23 0
168 -90 -23 0
-100 168 0
-100 22 0
100 -168 -22 0
-169 96 0
-169 27 0
169 -96 -27 0
-170 169 0
-170 5 0
170 -169 -5 0
-101 170 0
-101 26 0
101 -170 -26 0
-172 96 0
-172 16 0
172 -96 -16 0
-173 172 0
-173 24 0
173 -172 -24 0
-171 173 0
-171 26 0
171 -173 -26 0
102 171 0
-102 -171 0
-103 102 0
-103 28 0
103 -102 -28 0
-174 96 0
-174 27 0
174 -96 -27 0
-175 174 0
-175 5 0
175 -174 -5 0
-104 175 0
-104 26 0
104 -175 -26 0
-105 102 0
-105 28 0
105 -102 -28 0
106 51 0
-106 -51 0
177 -51 0
177 -103 0
-177 51 103 0
176 -177 0
176 -101 0
-176 177 101 0
107 176 0
-107 -176 0
108 48 0
-108 -48 0
109 53 0
-109 -53 0
-110 -105 0
-110 -104 0
110 105 104 0
178 -13 0
178 -38 0
-178 13 38 0
179 -178 0
179 -40 0
-179 178 40 0
111 -179 0
111 -110 0
-111 179 110 0
-112 49 0
-112 109 0
112 -49 -109 0
113 110 0
-113 -110 0
-114 22 0
-114 106 0
114 -22 -106 0
-180 97 0
-180 113 0
180 -97 -113 0
-115 180 0
-115 40 0
115 -180 -40 0
-116 91 0
-116 113 0
116 -91 -113 0
-117 110 0
-117 4 0
117 -110 -4 0
-118 106 0
-118 23 0
118 -106 -23 0
182 -110 0
182 -68 0
-182 110 68 0
183 -182 0
183 -67 0
-183 182 67 0
181 -183 0
181 -66 0
-181 183 66 0
119 181 0
-119 -181 0
-120 46 0
-120 108 0
120 -46 -108 0
-121 -117 0
-121 -116 0
121 117 116 0
-185 106 0
-185 76 0
185 -106 -76 0
-184 185 0
-184 75 0
184 -185 -75 0
122 184 0
-122 -184 0
187 -51 0
187 -73 0
-187 51 73 0
186 -187 0
186 -120 0
-186 187 120 0
123 186 0
-123 -186 0
189 -51 0
189 -74 0
-189 51 74 0
188 -189 0
188 -112 0
-188 189 112 0
124 188 0
-124 -188 0
-191 113 0
-191 85 0
191 -113 -85 0
-192 191 0
-192 84 0
192 -191 -84 0
-190 192 0
-190 83 0
190 -192 -83 0
125 190 0
-125 -190 0
-194 113 0
-194 88 0
194 -113 -88 0
-195 194 0
-195 87 0
195 -194 -87 0
-193 195 0
-193 86 0
193 -195 -86 0
126 193 0
-126 -193 0
-197 113 0
-197 79 0
197 -113 -79 0
-198 197 0
-198 78 0
198 -197 -78 0
-196 198 0
-196 77 0
196 -198 -77 0
127 196 0
-127 -196 0
200 -126 0
200 -70 0
-200 126 70 0
199 -200 0
199 -69 0
-199 200 69 0
128 199 0
-128 -199 0
-129 -127 0
-129 -71 0
129 127 71 0
-130 -122 0
-130 -98 0
130 122 98 0
-131 -125 0
-131 -72 0
131 125 72 0
132 -33 0
132 -113 0
-132 33 113 0
-133 -118 0
-133 -114 0
133 118 114 0
134 132 0
134 111 0
-134 -132 -111 0
-135 -134 0
-135 -115 0
135 134 115 0
202 -133 0
202 -100 0
-202 133 100 0
201 -202 0
201 -99 0
-201 202 99 0
136 201 0
-136 -201 0
c
c
-203 124 123 0
-203 -124 -123 0
203 -124 123 0
203 124 -123 0
203 0
-204 124 123 0
-204 -124 -123 0
204 -124 123 0
204 124 -123 0
204 0
-205 124 123 0
-205 -124 -123 0
205 -124 123 0
205 124 -123 0
205 0
